50 95
121 294 1
140 340 1
122 277 1
116 221 1
126 193 1
111 329 1
112 354 1
135 222 1
135 210 1
123 160 1
133 142 1
77 283 1
187 307 1
138 168 1
120 332 1
117 316 1
109 313 1
99 177 1
151 324 1
80 334 1
97 176 4
81 159 2
60 164 1
114 293 2
48 293 2
67 118 1
92 293 1
116 226 1
74 169 4
77 156 4
72 289 2
72 184 2
83 204 9
81 332 2
99 183 8
100 151 2
50 114 1
102 315 1
51 226 2
49 181 2
44 184 2
42 185 4
76 93 5
76 92 2
68 405 1
85 85 1
55 237 2
47 237 2
59 262 2
104 158 1
500 1000 
500 1000 
500 1000 
500 1000 
500 1000 
500 1000 
500 1000 
500 1000 
500 1000 
500 1000 
500 1000 
500 1000 
500 1000 
500 1000 
500 1000 
500 1000 
500 1000 
500 1000 
500 1000 
500 1000 
500 1000 
500 1000 
500 1000 
500 1000 
500 1000 
500 1000 
500 1000 
500 1000 
500 1000 
500 1000 
500 1000 
500 1000 
500 1000 
500 1000 
500 1000 
500 1000 
500 1000 
500 1000 
500 1000 
500 1000 
500 1000 
500 1000 
500 1000 
500 1000 
500 1000 
500 1000 
500 1000 
500 1000 
500 1000 
500 1000 
500 1000 
500 1000 
500 1000 
500 1000 
500 1000 
500 1000 
500 1000 
500 1000 
500 1000 
500 1000 
500 1000 
500 1000 
500 1000 
500 1000 
500 1000 
500 1000 
500 1000 
500 1000 
500 1000 
500 1000 
500 1000 
500 1000 
500 1000 
500 1000 
500 1000 
500 1000 
500 1000 
500 1000 
500 1000 
500 1000 
500 1000 
500 1000 
500 1000 
500 1000 
500 1000 
500 1000 
500 1000 
500 1000 
500 1000 
500 1000 
500 1000 
500 1000 
500 1000 
500 1000 
500 1000 
